\ENCODING=ISO-8859-1
\Problem name: 

Minimize
 obj: r
Subject To
 h11:          x111 + x121 + x131 + x141  = 2
 h12:          x112 + x122 + x132 + x142  = 3
 h13:          x113 + x123 + x133 + x143  = 4
 h14:          x114 + x124 + x134 + x144  = 5
 h15:          x115 + x125 + x135 + x145  = 6
 h16:          x116 + x126 + x136 + x146  = 7
 h17:          x117 + x127 + x137 + x147  = 8
 h21:          x211 + x221 + x231 + x241  = 3
 h22:          x212 + x222 + x232 + x242  = 4
 h23:          x213 + x223 + x233 + x243  = 5
 h24:          x214 + x224 + x234 + x244  = 6
 h25:          x215 + x225 + x235 + x245  = 7
 h26:          x216 + x226 + x236 + x246  = 8
 h27:          x217 + x227 + x237 + x247  = 9
 h31:          x311 + x321 + x331 + x341  = 4
 h32:          x312 + x322 + x332 + x342  = 5
 h33:          x313 + x323 + x333 + x343  = 6
 h34:          x314 + x324 + x334 + x344  = 7
 h35:          x315 + x325 + x335 + x345  = 8
 h36:          x316 + x326 + x336 + x346  = 9
 h37:          x317 + x327 + x337 + x347  = 10
 h41:          x411 + x421 + x431 + x441  = 5
 h42:          x412 + x422 + x432 + x442  = 6
 h43:          x413 + x423 + x433 + x443  = 7
 h44:          x414 + x424 + x434 + x444  = 8
 h45:          x415 + x425 + x435 + x445  = 9
 h46:          x416 + x426 + x436 + x446  = 10
 h47:          x417 + x427 + x437 + x447  = 11
 h51:          x511 + x521 + x531 + x541  = 6
 h52:          x512 + x522 + x532 + x542  = 7
 h53:          x513 + x523 + x533 + x543  = 8
 h54:          x514 + x524 + x534 + x544  = 9
 h55:          x515 + x525 + x535 + x545  = 10
 h56:          x516 + x526 + x536 + x546  = 11
 h57:          x517 + x527 + x537 + x547  = 12
 h61:          x611 + x621 + x631 + x641  = 7
 h62:          x612 + x622 + x632 + x642  = 8
 h63:          x613 + x623 + x633 + x643  = 9
 h64:          x614 + x624 + x634 + x644  = 10
 h65:          x615 + x625 + x635 + x645  = 11
 h66:          x616 + x626 + x636 + x646  = 12
 h67:          x617 + x627 + x637 + x647  = 13
 h71:          x711 + x721 + x731 + x741  = 8
 h72:          x712 + x722 + x732 + x742  = 9
 h73:          x713 + x723 + x733 + x743  = 10
 h74:          x714 + x724 + x734 + x744  = 11
 h75:          x715 + x725 + x735 + x745  = 12
 h76:          x716 + x726 + x736 + x746  = 13
 h77:          x717 + x727 + x737 + x747  = 14
 pathUtil11:   U11111 + U11121 + U11131 + U11141  = 3
 pathUtil12:   U12112 + U12122 + U12132 + U12142  = 3
 pathUtil13:   U13113 + U13123 + U13133 + U13143  = 3
 pathUtil14:   U14114 + U14124 + U14134 + U14144  = 3
 pathUtil15:   U15115 + U15125 + U15135 + U15145  = 3
 pathUtil16:   U16116 + U16126 + U16136 + U16146  = 3
 pathUtil17:   U17117 + U17127 + U17137 + U17147  = 3
 pathUtil21:   U21211 + U21221 + U21231 + U21241  = 3
 pathUtil22:   U22212 + U22222 + U22232 + U22242  = 3
 pathUtil23:   U23213 + U23223 + U23233 + U23243  = 3
 pathUtil24:   U24214 + U24224 + U24234 + U24244  = 3
 pathUtil25:   U25215 + U25225 + U25235 + U25245  = 3
 pathUtil26:   U26216 + U26226 + U26236 + U26246  = 3
 pathUtil27:   U27217 + U27227 + U27237 + U27247  = 3
 pathUtil31:   U31311 + U31321 + U31331 + U31341  = 3
 pathUtil32:   U32312 + U32322 + U32332 + U32342  = 3
 pathUtil33:   U33313 + U33323 + U33333 + U33343  = 3
 pathUtil34:   U34314 + U34324 + U34334 + U34344  = 3
 pathUtil35:   U35315 + U35325 + U35335 + U35345  = 3
 pathUtil36:   U36316 + U36326 + U36336 + U36346  = 3
 pathUtil37:   U37317 + U37327 + U37337 + U37347  = 3
 pathUtil41:   U41411 + U41421 + U41431 + U41441  = 3
 pathUtil42:   U42412 + U42422 + U42432 + U42442  = 3
 pathUtil43:   U43413 + U43423 + U43433 + U43443  = 3
 pathUtil44:   U44414 + U44424 + U44434 + U44444  = 3
 pathUtil45:   U45415 + U45425 + U45435 + U45445  = 3
 pathUtil46:   U46416 + U46426 + U46436 + U46446  = 3
 pathUtil47:   U47417 + U47427 + U47437 + U47447  = 3
 pathUtil51:   U51511 + U51521 + U51531 + U51541  = 3
 pathUtil52:   U52512 + U52522 + U52532 + U52542  = 3
 pathUtil53:   U53513 + U53523 + U53533 + U53543  = 3
 pathUtil54:   U54514 + U54524 + U54534 + U54544  = 3
 pathUtil55:   U55515 + U55525 + U55535 + U55545  = 3
 pathUtil56:   U56516 + U56526 + U56536 + U56546  = 3
 pathUtil57:   U57517 + U57527 + U57537 + U57547  = 3
 pathUtil61:   U61611 + U61621 + U61631 + U61641  = 3
 pathUtil62:   U62612 + U62622 + U62632 + U62642  = 3
 pathUtil63:   U63613 + U63623 + U63633 + U63643  = 3
 pathUtil64:   U64614 + U64624 + U64634 + U64644  = 3
 pathUtil65:   U65615 + U65625 + U65635 + U65645  = 3
 pathUtil66:   U66616 + U66626 + U66636 + U66646  = 3
 pathUtil67:   U67617 + U67627 + U67637 + U67647  = 3
 pathUtil71:   U71711 + U71721 + U71731 + U71741  = 3
 pathUtil72:   U72712 + U72722 + U72732 + U72742  = 3
 pathUtil73:   U73713 + U73723 + U73733 + U73743  = 3
 pathUtil74:   U74714 + U74724 + U74734 + U74744  = 3
 pathUtil75:   U75715 + U75725 + U75735 + U75745  = 3
 pathUtil76:   U76716 + U76726 + U76736 + U76746  = 3
 pathUtil77:   U77717 + U77727 + U77737 + U77747  = 3
 splith11:     - x111 + 0.666666666666667 U11111  = 0
 splith11:     - x121 + 0.666666666666667 U11121  = 0
 splith11:     - x131 + 0.666666666666667 U11131  = 0
 splith11:     - x141 + 0.666666666666667 U11141  = 0
 splith12:     - x112 + U12112  = 0
 splith12:     - x122 + U12122  = 0
 splith12:     - x132 + U12132  = 0
 splith12:     - x142 + U12142  = 0
 splith13:     - x113 + 1.33333333333333 U13113  = 0
 splith13:     - x123 + 1.33333333333333 U13123  = 0
 splith13:     - x133 + 1.33333333333333 U13133  = 0
 splith13:     - x143 + 1.33333333333333 U13143  = 0
 splith14:     - x114 + 1.66666666666667 U14114  = 0
 splith14:     - x124 + 1.66666666666667 U14124  = 0
 splith14:     - x134 + 1.66666666666667 U14134  = 0
 splith14:     - x144 + 1.66666666666667 U14144  = 0
 splith15:     - x115 + 2 U15115  = 0
 splith15:     - x125 + 2 U15125  = 0
 splith15:     - x135 + 2 U15135  = 0
 splith15:     - x145 + 2 U15145  = 0
 splith16:     - x116 + 2.33333333333333 U16116  = 0
 splith16:     - x126 + 2.33333333333333 U16126  = 0
 splith16:     - x136 + 2.33333333333333 U16136  = 0
 splith16:     - x146 + 2.33333333333333 U16146  = 0
 splith17:     - x117 + 2.66666666666667 U17117  = 0
 splith17:     - x127 + 2.66666666666667 U17127  = 0
 splith17:     - x137 + 2.66666666666667 U17137  = 0
 splith17:     - x147 + 2.66666666666667 U17147  = 0
 splith21:     - x211 + U21211  = 0
 splith21:     - x221 + U21221  = 0
 splith21:     - x231 + U21231  = 0
 splith21:     - x241 + U21241  = 0
 splith22:     - x212 + 1.33333333333333 U22212  = 0
 splith22:     - x222 + 1.33333333333333 U22222  = 0
 splith22:     - x232 + 1.33333333333333 U22232  = 0
 splith22:     - x242 + 1.33333333333333 U22242  = 0
 splith23:     - x213 + 1.66666666666667 U23213  = 0
 splith23:     - x223 + 1.66666666666667 U23223  = 0
 splith23:     - x233 + 1.66666666666667 U23233  = 0
 splith23:     - x243 + 1.66666666666667 U23243  = 0
 splith24:     - x214 + 2 U24214  = 0
 splith24:     - x224 + 2 U24224  = 0
 splith24:     - x234 + 2 U24234  = 0
 splith24:     - x244 + 2 U24244  = 0
 splith25:     - x215 + 2.33333333333333 U25215  = 0
 splith25:     - x225 + 2.33333333333333 U25225  = 0
 splith25:     - x235 + 2.33333333333333 U25235  = 0
 splith25:     - x245 + 2.33333333333333 U25245  = 0
 splith26:     - x216 + 2.66666666666667 U26216  = 0
 splith26:     - x226 + 2.66666666666667 U26226  = 0
 splith26:     - x236 + 2.66666666666667 U26236  = 0
 splith26:     - x246 + 2.66666666666667 U26246  = 0
 splith27:     - x217 + 3 U27217  = 0
 splith27:     - x227 + 3 U27227  = 0
 splith27:     - x237 + 3 U27237  = 0
 splith27:     - x247 + 3 U27247  = 0
 splith31:     - x311 + 1.33333333333333 U31311  = 0
 splith31:     - x321 + 1.33333333333333 U31321  = 0
 splith31:     - x331 + 1.33333333333333 U31331  = 0
 splith31:     - x341 + 1.33333333333333 U31341  = 0
 splith32:     - x312 + 1.66666666666667 U32312  = 0
 splith32:     - x322 + 1.66666666666667 U32322  = 0
 splith32:     - x332 + 1.66666666666667 U32332  = 0
 splith32:     - x342 + 1.66666666666667 U32342  = 0
 splith33:     - x313 + 2 U33313  = 0
 splith33:     - x323 + 2 U33323  = 0
 splith33:     - x333 + 2 U33333  = 0
 splith33:     - x343 + 2 U33343  = 0
 splith34:     - x314 + 2.33333333333333 U34314  = 0
 splith34:     - x324 + 2.33333333333333 U34324  = 0
 splith34:     - x334 + 2.33333333333333 U34334  = 0
 splith34:     - x344 + 2.33333333333333 U34344  = 0
 splith35:     - x315 + 2.66666666666667 U35315  = 0
 splith35:     - x325 + 2.66666666666667 U35325  = 0
 splith35:     - x335 + 2.66666666666667 U35335  = 0
 splith35:     - x345 + 2.66666666666667 U35345  = 0
 splith36:     - x316 + 3 U36316  = 0
 splith36:     - x326 + 3 U36326  = 0
 splith36:     - x336 + 3 U36336  = 0
 splith36:     - x346 + 3 U36346  = 0
 splith37:     - x317 + 3.33333333333333 U37317  = 0
 splith37:     - x327 + 3.33333333333333 U37327  = 0
 splith37:     - x337 + 3.33333333333333 U37337  = 0
 splith37:     - x347 + 3.33333333333333 U37347  = 0
 splith41:     - x411 + 1.66666666666667 U41411  = 0
 splith41:     - x421 + 1.66666666666667 U41421  = 0
 splith41:     - x431 + 1.66666666666667 U41431  = 0
 splith41:     - x441 + 1.66666666666667 U41441  = 0
 splith42:     - x412 + 2 U42412  = 0
 splith42:     - x422 + 2 U42422  = 0
 splith42:     - x432 + 2 U42432  = 0
 splith42:     - x442 + 2 U42442  = 0
 splith43:     - x413 + 2.33333333333333 U43413  = 0
 splith43:     - x423 + 2.33333333333333 U43423  = 0
 splith43:     - x433 + 2.33333333333333 U43433  = 0
 splith43:     - x443 + 2.33333333333333 U43443  = 0
 splith44:     - x414 + 2.66666666666667 U44414  = 0
 splith44:     - x424 + 2.66666666666667 U44424  = 0
 splith44:     - x434 + 2.66666666666667 U44434  = 0
 splith44:     - x444 + 2.66666666666667 U44444  = 0
 splith45:     - x415 + 3 U45415  = 0
 splith45:     - x425 + 3 U45425  = 0
 splith45:     - x435 + 3 U45435  = 0
 splith45:     - x445 + 3 U45445  = 0
 splith46:     - x416 + 3.33333333333333 U46416  = 0
 splith46:     - x426 + 3.33333333333333 U46426  = 0
 splith46:     - x436 + 3.33333333333333 U46436  = 0
 splith46:     - x446 + 3.33333333333333 U46446  = 0
 splith47:     - x417 + 3.66666666666667 U47417  = 0
 splith47:     - x427 + 3.66666666666667 U47427  = 0
 splith47:     - x437 + 3.66666666666667 U47437  = 0
 splith47:     - x447 + 3.66666666666667 U47447  = 0
 splith51:     - x511 + 2 U51511  = 0
 splith51:     - x521 + 2 U51521  = 0
 splith51:     - x531 + 2 U51531  = 0
 splith51:     - x541 + 2 U51541  = 0
 splith52:     - x512 + 2.33333333333333 U52512  = 0
 splith52:     - x522 + 2.33333333333333 U52522  = 0
 splith52:     - x532 + 2.33333333333333 U52532  = 0
 splith52:     - x542 + 2.33333333333333 U52542  = 0
 splith53:     - x513 + 2.66666666666667 U53513  = 0
 splith53:     - x523 + 2.66666666666667 U53523  = 0
 splith53:     - x533 + 2.66666666666667 U53533  = 0
 splith53:     - x543 + 2.66666666666667 U53543  = 0
 splith54:     - x514 + 3 U54514  = 0
 splith54:     - x524 + 3 U54524  = 0
 splith54:     - x534 + 3 U54534  = 0
 splith54:     - x544 + 3 U54544  = 0
 splith55:     - x515 + 3.33333333333333 U55515  = 0
 splith55:     - x525 + 3.33333333333333 U55525  = 0
 splith55:     - x535 + 3.33333333333333 U55535  = 0
 splith55:     - x545 + 3.33333333333333 U55545  = 0
 splith56:     - x516 + 3.66666666666667 U56516  = 0
 splith56:     - x526 + 3.66666666666667 U56526  = 0
 splith56:     - x536 + 3.66666666666667 U56536  = 0
 splith56:     - x546 + 3.66666666666667 U56546  = 0
 splith57:     - x517 + 4 U57517  = 0
 splith57:     - x527 + 4 U57527  = 0
 splith57:     - x537 + 4 U57537  = 0
 splith57:     - x547 + 4 U57547  = 0
 splith61:     - x611 + 2.33333333333333 U61611  = 0
 splith61:     - x621 + 2.33333333333333 U61621  = 0
 splith61:     - x631 + 2.33333333333333 U61631  = 0
 splith61:     - x641 + 2.33333333333333 U61641  = 0
 splith62:     - x612 + 2.66666666666667 U62612  = 0
 splith62:     - x622 + 2.66666666666667 U62622  = 0
 splith62:     - x632 + 2.66666666666667 U62632  = 0
 splith62:     - x642 + 2.66666666666667 U62642  = 0
 splith63:     - x613 + 3 U63613  = 0
 splith63:     - x623 + 3 U63623  = 0
 splith63:     - x633 + 3 U63633  = 0
 splith63:     - x643 + 3 U63643  = 0
 splith64:     - x614 + 3.33333333333333 U64614  = 0
 splith64:     - x624 + 3.33333333333333 U64624  = 0
 splith64:     - x634 + 3.33333333333333 U64634  = 0
 splith64:     - x644 + 3.33333333333333 U64644  = 0
 splith65:     - x615 + 3.66666666666667 U65615  = 0
 splith65:     - x625 + 3.66666666666667 U65625  = 0
 splith65:     - x635 + 3.66666666666667 U65635  = 0
 splith65:     - x645 + 3.66666666666667 U65645  = 0
 splith66:     - x616 + 4 U66616  = 0
 splith66:     - x626 + 4 U66626  = 0
 splith66:     - x636 + 4 U66636  = 0
 splith66:     - x646 + 4 U66646  = 0
 splith67:     - x617 + 4.33333333333333 U67617  = 0
 splith67:     - x627 + 4.33333333333333 U67627  = 0
 splith67:     - x637 + 4.33333333333333 U67637  = 0
 splith67:     - x647 + 4.33333333333333 U67647  = 0
 splith71:     - x711 + 2.66666666666667 U71711  = 0
 splith71:     - x721 + 2.66666666666667 U71721  = 0
 splith71:     - x731 + 2.66666666666667 U71731  = 0
 splith71:     - x741 + 2.66666666666667 U71741  = 0
 splith72:     - x712 + 3 U72712  = 0
 splith72:     - x722 + 3 U72722  = 0
 splith72:     - x732 + 3 U72732  = 0
 splith72:     - x742 + 3 U72742  = 0
 splith73:     - x713 + 3.33333333333333 U73713  = 0
 splith73:     - x723 + 3.33333333333333 U73723  = 0
 splith73:     - x733 + 3.33333333333333 U73733  = 0
 splith73:     - x743 + 3.33333333333333 U73743  = 0
 splith74:     - x714 + 3.66666666666667 U74714  = 0
 splith74:     - x724 + 3.66666666666667 U74724  = 0
 splith74:     - x734 + 3.66666666666667 U74734  = 0
 splith74:     - x744 + 3.66666666666667 U74744  = 0
 splith75:     - x715 + 4 U75715  = 0
 splith75:     - x725 + 4 U75725  = 0
 splith75:     - x735 + 4 U75735  = 0
 splith75:     - x745 + 4 U75745  = 0
 splith76:     - x716 + 4.33333333333333 U76716  = 0
 splith76:     - x726 + 4.33333333333333 U76726  = 0
 splith76:     - x736 + 4.33333333333333 U76736  = 0
 splith76:     - x746 + 4.33333333333333 U76746  = 0
 splith77:     - x717 + 4.66666666666667 U77717  = 0
 splith77:     - x727 + 4.66666666666667 U77727  = 0
 splith77:     - x737 + 4.66666666666667 U77737  = 0
 splith77:     - x747 + 4.66666666666667 U77747  = 0
 capacC11:     x111 + x112 + x113 + x114 + x115 + x116 + x117 - c11  = 0
 capacC12:     x121 + x122 + x123 + x124 + x125 + x126 + x127 - c12  = 0
 capacC13:     x131 + x132 + x133 + x134 + x135 + x136 + x137 - c13  = 0
 capacC14:     x141 + x142 + x143 + x144 + x145 + x146 + x147 - c14  = 0
 capacC21:     x211 + x212 + x213 + x214 + x215 + x216 + x217 - c21  = 0
 capacC22:     x221 + x222 + x223 + x224 + x225 + x226 + x227 - c22  = 0
 capacC23:     x231 + x232 + x233 + x234 + x235 + x236 + x237 - c23  = 0
 capacC24:     x241 + x242 + x243 + x244 + x245 + x246 + x247 - c24  = 0
 capacC31:     x311 + x312 + x313 + x314 + x315 + x316 + x317 - c31  = 0
 capacC32:     x321 + x322 + x323 + x324 + x325 + x326 + x327 - c32  = 0
 capacC33:     x331 + x332 + x333 + x334 + x335 + x336 + x337 - c33  = 0
 capacC34:     x341 + x342 + x343 + x344 + x345 + x346 + x347 - c34  = 0
 capacC41:     x411 + x412 + x413 + x414 + x415 + x416 + x417 - c41  = 0
 capacC42:     x421 + x422 + x423 + x424 + x425 + x426 + x427 - c42  = 0
 capacC43:     x431 + x432 + x433 + x434 + x435 + x436 + x437 - c43  = 0
 capacC44:     x441 + x442 + x443 + x444 + x445 + x446 + x447 - c44  = 0
 capacC51:     x511 + x512 + x513 + x514 + x515 + x516 + x517 - c51  = 0
 capacC52:     x521 + x522 + x523 + x524 + x525 + x526 + x527 - c52  = 0
 capacC53:     x531 + x532 + x533 + x534 + x535 + x536 + x537 - c53  = 0
 capacC54:     x541 + x542 + x543 + x544 + x545 + x546 + x547 - c54  = 0
 capacC61:     x611 + x612 + x613 + x614 + x615 + x616 + x617 - c61  = 0
 capacC62:     x621 + x622 + x623 + x624 + x625 + x626 + x627 - c62  = 0
 capacC63:     x631 + x632 + x633 + x634 + x635 + x636 + x637 - c63  = 0
 capacC64:     x641 + x642 + x643 + x644 + x645 + x646 + x647 - c64  = 0
 capacC71:     x711 + x712 + x713 + x714 + x715 + x716 + x717 - c71  = 0
 capacC72:     x721 + x722 + x723 + x724 + x725 + x726 + x727 - c72  = 0
 capacC73:     x731 + x732 + x733 + x734 + x735 + x736 + x737 - c73  = 0
 capacC74:     x741 + x742 + x743 + x744 + x745 + x746 + x747 - c74  = 0
 capacD11:     x111 + x211 + x311 + x411 + x511 + x611 + x711 - d11  = 0
 capacD12:     x112 + x212 + x312 + x412 + x512 + x612 + x712 - d12  = 0
 capacD13:     x113 + x213 + x313 + x413 + x513 + x613 + x713 - d13  = 0
 capacD14:     x114 + x214 + x314 + x414 + x514 + x614 + x714 - d14  = 0
 capacD15:     x115 + x215 + x315 + x415 + x515 + x615 + x715 - d15  = 0
 capacD16:     x116 + x216 + x316 + x416 + x516 + x616 + x716 - d16  = 0
 capacD17:     x117 + x217 + x317 + x417 + x517 + x617 + x717 - d17  = 0
 capacD21:     x121 + x221 + x321 + x421 + x521 + x621 + x721 - d21  = 0
 capacD22:     x122 + x222 + x322 + x422 + x522 + x622 + x722 - d22  = 0
 capacD23:     x123 + x223 + x323 + x423 + x523 + x623 + x723 - d23  = 0
 capacD24:     x124 + x224 + x324 + x424 + x524 + x624 + x724 - d24  = 0
 capacD25:     x125 + x225 + x325 + x425 + x525 + x625 + x725 - d25  = 0
 capacD26:     x126 + x226 + x326 + x426 + x526 + x626 + x726 - d26  = 0
 capacD27:     x127 + x227 + x327 + x427 + x527 + x627 + x727 - d27  = 0
 capacD31:     x131 + x231 + x331 + x431 + x531 + x631 + x731 - d31  = 0
 capacD32:     x132 + x232 + x332 + x432 + x532 + x632 + x732 - d32  = 0
 capacD33:     x133 + x233 + x333 + x433 + x533 + x633 + x733 - d33  = 0
 capacD34:     x134 + x234 + x334 + x434 + x534 + x634 + x734 - d34  = 0
 capacD35:     x135 + x235 + x335 + x435 + x535 + x635 + x735 - d35  = 0
 capacD36:     x136 + x236 + x336 + x436 + x536 + x636 + x736 - d36  = 0
 capacD37:     x137 + x237 + x337 + x437 + x537 + x637 + x737 - d37  = 0
 capacD41:     x141 + x241 + x341 + x441 + x541 + x641 + x741 - d41  = 0
 capacD42:     x142 + x242 + x342 + x442 + x542 + x642 + x742 - d42  = 0
 capacD43:     x143 + x243 + x343 + x443 + x543 + x643 + x743 - d43  = 0
 capacD44:     x144 + x244 + x344 + x444 + x544 + x644 + x744 - d44  = 0
 capacD45:     x145 + x245 + x345 + x445 + x545 + x645 + x745 - d45  = 0
 capacD46:     x146 + x246 + x346 + x446 + x546 + x646 + x746 - d46  = 0
 capacD47:     x147 + x247 + x347 + x447 + x547 + x647 + x747 - d47  = 0
 load1:        x111 + x112 + x113 + x114 + x115 + x116 + x117 + x211 + x212
               + x213 + x214 + x215 + x216 + x217 + x311 + x312 + x313 + x314
               + x315 + x316 + x317 + x411 + x412 + x413 + x414 + x415 + x416
               + x417 + x511 + x512 + x513 + x514 + x515 + x516 + x517 + x611
               + x612 + x613 + x614 + x615 + x616 + x617 + x711 + x712 + x713
               + x714 + x715 + x716 + x717 - loadk1  = 0
 load2:        x121 + x122 + x123 + x124 + x125 + x126 + x127 + x221 + x222
               + x223 + x224 + x225 + x226 + x227 + x321 + x322 + x323 + x324
               + x325 + x326 + x327 + x421 + x422 + x423 + x424 + x425 + x426
               + x427 + x521 + x522 + x523 + x524 + x525 + x526 + x527 + x621
               + x622 + x623 + x624 + x625 + x626 + x627 + x721 + x722 + x723
               + x724 + x725 + x726 + x727 - loadk2  = 0
 load3:        x131 + x132 + x133 + x134 + x135 + x136 + x137 + x231 + x232
               + x233 + x234 + x235 + x236 + x237 + x331 + x332 + x333 + x334
               + x335 + x336 + x337 + x431 + x432 + x433 + x434 + x435 + x436
               + x437 + x531 + x532 + x533 + x534 + x535 + x536 + x537 + x631
               + x632 + x633 + x634 + x635 + x636 + x637 + x731 + x732 + x733
               + x734 + x735 + x736 + x737 - loadk3  = 0
 load4:        x141 + x142 + x143 + x144 + x145 + x146 + x147 + x241 + x242
               + x243 + x244 + x245 + x246 + x247 + x341 + x342 + x343 + x344
               + x345 + x346 + x347 + x441 + x442 + x443 + x444 + x445 + x446
               + x447 + x541 + x542 + x543 + x544 + x545 + x546 + x547 + x641
               + x642 + x643 + x644 + x645 + x646 + x647 + x741 + x742 + x743
               + x744 + x745 + x746 + x747 - loadk4  = 0
 loadbalance1: - 0.00255102040816327 loadk1 + r >= 0
 loadbalance2: - 0.00255102040816327 loadk2 + r >= 0
 loadbalance3: - 0.00255102040816327 loadk3 + r >= 0
 loadbalance4: - 0.00255102040816327 loadk4 + r >= 0
Bounds
 0 <= U11111 <= 1
 0 <= U11121 <= 1
 0 <= U11131 <= 1
 0 <= U11141 <= 1
 0 <= U12112 <= 1
 0 <= U12122 <= 1
 0 <= U12132 <= 1
 0 <= U12142 <= 1
 0 <= U13113 <= 1
 0 <= U13123 <= 1
 0 <= U13133 <= 1
 0 <= U13143 <= 1
 0 <= U14114 <= 1
 0 <= U14124 <= 1
 0 <= U14134 <= 1
 0 <= U14144 <= 1
 0 <= U15115 <= 1
 0 <= U15125 <= 1
 0 <= U15135 <= 1
 0 <= U15145 <= 1
 0 <= U16116 <= 1
 0 <= U16126 <= 1
 0 <= U16136 <= 1
 0 <= U16146 <= 1
 0 <= U17117 <= 1
 0 <= U17127 <= 1
 0 <= U17137 <= 1
 0 <= U17147 <= 1
 0 <= U21211 <= 1
 0 <= U21221 <= 1
 0 <= U21231 <= 1
 0 <= U21241 <= 1
 0 <= U22212 <= 1
 0 <= U22222 <= 1
 0 <= U22232 <= 1
 0 <= U22242 <= 1
 0 <= U23213 <= 1
 0 <= U23223 <= 1
 0 <= U23233 <= 1
 0 <= U23243 <= 1
 0 <= U24214 <= 1
 0 <= U24224 <= 1
 0 <= U24234 <= 1
 0 <= U24244 <= 1
 0 <= U25215 <= 1
 0 <= U25225 <= 1
 0 <= U25235 <= 1
 0 <= U25245 <= 1
 0 <= U26216 <= 1
 0 <= U26226 <= 1
 0 <= U26236 <= 1
 0 <= U26246 <= 1
 0 <= U27217 <= 1
 0 <= U27227 <= 1
 0 <= U27237 <= 1
 0 <= U27247 <= 1
 0 <= U31311 <= 1
 0 <= U31321 <= 1
 0 <= U31331 <= 1
 0 <= U31341 <= 1
 0 <= U32312 <= 1
 0 <= U32322 <= 1
 0 <= U32332 <= 1
 0 <= U32342 <= 1
 0 <= U33313 <= 1
 0 <= U33323 <= 1
 0 <= U33333 <= 1
 0 <= U33343 <= 1
 0 <= U34314 <= 1
 0 <= U34324 <= 1
 0 <= U34334 <= 1
 0 <= U34344 <= 1
 0 <= U35315 <= 1
 0 <= U35325 <= 1
 0 <= U35335 <= 1
 0 <= U35345 <= 1
 0 <= U36316 <= 1
 0 <= U36326 <= 1
 0 <= U36336 <= 1
 0 <= U36346 <= 1
 0 <= U37317 <= 1
 0 <= U37327 <= 1
 0 <= U37337 <= 1
 0 <= U37347 <= 1
 0 <= U41411 <= 1
 0 <= U41421 <= 1
 0 <= U41431 <= 1
 0 <= U41441 <= 1
 0 <= U42412 <= 1
 0 <= U42422 <= 1
 0 <= U42432 <= 1
 0 <= U42442 <= 1
 0 <= U43413 <= 1
 0 <= U43423 <= 1
 0 <= U43433 <= 1
 0 <= U43443 <= 1
 0 <= U44414 <= 1
 0 <= U44424 <= 1
 0 <= U44434 <= 1
 0 <= U44444 <= 1
 0 <= U45415 <= 1
 0 <= U45425 <= 1
 0 <= U45435 <= 1
 0 <= U45445 <= 1
 0 <= U46416 <= 1
 0 <= U46426 <= 1
 0 <= U46436 <= 1
 0 <= U46446 <= 1
 0 <= U47417 <= 1
 0 <= U47427 <= 1
 0 <= U47437 <= 1
 0 <= U47447 <= 1
 0 <= U51511 <= 1
 0 <= U51521 <= 1
 0 <= U51531 <= 1
 0 <= U51541 <= 1
 0 <= U52512 <= 1
 0 <= U52522 <= 1
 0 <= U52532 <= 1
 0 <= U52542 <= 1
 0 <= U53513 <= 1
 0 <= U53523 <= 1
 0 <= U53533 <= 1
 0 <= U53543 <= 1
 0 <= U54514 <= 1
 0 <= U54524 <= 1
 0 <= U54534 <= 1
 0 <= U54544 <= 1
 0 <= U55515 <= 1
 0 <= U55525 <= 1
 0 <= U55535 <= 1
 0 <= U55545 <= 1
 0 <= U56516 <= 1
 0 <= U56526 <= 1
 0 <= U56536 <= 1
 0 <= U56546 <= 1
 0 <= U57517 <= 1
 0 <= U57527 <= 1
 0 <= U57537 <= 1
 0 <= U57547 <= 1
 0 <= U61611 <= 1
 0 <= U61621 <= 1
 0 <= U61631 <= 1
 0 <= U61641 <= 1
 0 <= U62612 <= 1
 0 <= U62622 <= 1
 0 <= U62632 <= 1
 0 <= U62642 <= 1
 0 <= U63613 <= 1
 0 <= U63623 <= 1
 0 <= U63633 <= 1
 0 <= U63643 <= 1
 0 <= U64614 <= 1
 0 <= U64624 <= 1
 0 <= U64634 <= 1
 0 <= U64644 <= 1
 0 <= U65615 <= 1
 0 <= U65625 <= 1
 0 <= U65635 <= 1
 0 <= U65645 <= 1
 0 <= U66616 <= 1
 0 <= U66626 <= 1
 0 <= U66636 <= 1
 0 <= U66646 <= 1
 0 <= U67617 <= 1
 0 <= U67627 <= 1
 0 <= U67637 <= 1
 0 <= U67647 <= 1
 0 <= U71711 <= 1
 0 <= U71721 <= 1
 0 <= U71731 <= 1
 0 <= U71741 <= 1
 0 <= U72712 <= 1
 0 <= U72722 <= 1
 0 <= U72732 <= 1
 0 <= U72742 <= 1
 0 <= U73713 <= 1
 0 <= U73723 <= 1
 0 <= U73733 <= 1
 0 <= U73743 <= 1
 0 <= U74714 <= 1
 0 <= U74724 <= 1
 0 <= U74734 <= 1
 0 <= U74744 <= 1
 0 <= U75715 <= 1
 0 <= U75725 <= 1
 0 <= U75735 <= 1
 0 <= U75745 <= 1
 0 <= U76716 <= 1
 0 <= U76726 <= 1
 0 <= U76736 <= 1
 0 <= U76746 <= 1
 0 <= U77717 <= 1
 0 <= U77727 <= 1
 0 <= U77737 <= 1
 0 <= U77747 <= 1
 0 <= r <= 1
Binaries
 U11111  U11121  U11131  U11141  U12112  U12122  U12132  U12142  U13113 
 U13123  U13133  U13143  U14114  U14124  U14134  U14144  U15115  U15125 
 U15135  U15145  U16116  U16126  U16136  U16146  U17117  U17127  U17137 
 U17147  U21211  U21221  U21231  U21241  U22212  U22222  U22232  U22242 
 U23213  U23223  U23233  U23243  U24214  U24224  U24234  U24244  U25215 
 U25225  U25235  U25245  U26216  U26226  U26236  U26246  U27217  U27227 
 U27237  U27247  U31311  U31321  U31331  U31341  U32312  U32322  U32332 
 U32342  U33313  U33323  U33333  U33343  U34314  U34324  U34334  U34344 
 U35315  U35325  U35335  U35345  U36316  U36326  U36336  U36346  U37317 
 U37327  U37337  U37347  U41411  U41421  U41431  U41441  U42412  U42422 
 U42432  U42442  U43413  U43423  U43433  U43443  U44414  U44424  U44434 
 U44444  U45415  U45425  U45435  U45445  U46416  U46426  U46436  U46446 
 U47417  U47427  U47437  U47447  U51511  U51521  U51531  U51541  U52512 
 U52522  U52532  U52542  U53513  U53523  U53533  U53543  U54514  U54524 
 U54534  U54544  U55515  U55525  U55535  U55545  U56516  U56526  U56536 
 U56546  U57517  U57527  U57537  U57547  U61611  U61621  U61631  U61641 
 U62612  U62622  U62632  U62642  U63613  U63623  U63633  U63643  U64614 
 U64624  U64634  U64644  U65615  U65625  U65635  U65645  U66616  U66626 
 U66636  U66646  U67617  U67627  U67637  U67647  U71711  U71721  U71731 
 U71741  U72712  U72722  U72732  U72742  U73713  U73723  U73733  U73743 
 U74714  U74724  U74734  U74744  U75715  U75725  U75735  U75745  U76716 
 U76726  U76736  U76746  U77717  U77727  U77737  U77747 
End
